data;

param n:=29;
param p:=4;
param r:=[1] 0 [2] 1 [3] 4 [4] 9 [5] 16 [6] 9 [7] 11 [8] 22 [9] 16 [10] 6 [11] 24 [12] 43 [13] 38 [14] 39 [15] 12 [16] 54 [17] 60 [18] 27 [19] 47 [20] 41 [21] 34 [22] 5 [23] 10 [24] 55 [25] 10 [26] 98 [27] 101 [28] 30 [29] 64 ;
param w:=[1] 2 [2] 44 [3] 30 [4] 10 [5] 28 [6] 63 [7] 25 [8] 61 [9] 47 [10] 10 [11] 56 [12] 47 [13] 80 [14] 21 [15] 92 [16] 21 [17] 67 [18] 70 [19] 4 [20] 88 [21] 62 [22] 100 [23] 31 [24] 42 [25] 36 [26] 10 [27] 3 [28] 50 [29] 63 ;

end;
